(set-logic QF_LRA)
(declare-fun T1 () Real )
(declare-fun T2 () Real )
(declare-fun T3 () Real )
(declare-fun T4 () Real )
(declare-fun T5 () Real )
(declare-fun T6 () Real )
(declare-fun Z () Real )
(assert ( and 
(or ( <= ( + T1 15 ) T2 ) ( <= ( + T2 13 ) T1 ) )
(or ( <= ( + T1 63 )  ( + T2 13 ) ) ( <= ( + T2 76 )( + T1 15 ) ) )
(or ( <= ( + T1 163 )  ( + T2 76 ) ) ( <= ( + T2 84 )( + T1 63 ) ) )
(or ( <= ( + T1 183 )  ( + T2 84 ) ) ( <= ( + T2 181 )( + T1 163 ) ) )
(or ( <= ( + T1 15 ) T3 ) ( <= ( + T3 80 ) T1 ) )
(or ( <= ( + T1 63 )  ( + T3 80 ) ) ( <= ( + T3 173 )( + T1 15 ) ) )
(or ( <= ( + T1 163 )  ( + T3 173 ) ) ( <= ( + T3 250 )( + T1 63 ) ) )
(or ( <= ( + T1 183 )  ( + T3 250 ) ) ( <= ( + T3 280 )( + T1 163 ) ) )
(or ( <= ( + T1 15 ) T4 ) ( <= ( + T4 54 ) T1 ) )
(or ( <= ( + T1 63 )  ( + T4 54 ) ) ( <= ( + T4 124 )( + T1 15 ) ) )
(or ( <= ( + T1 163 )  ( + T4 124 ) ) ( <= ( + T4 134 )( + T1 63 ) ) )
(or ( <= ( + T1 183 )  ( + T4 134 ) ) ( <= ( + T4 211 )( + T1 163 ) ) )
(or ( <= ( + T1 15 ) T5 ) ( <= ( + T5 19 ) T1 ) )
(or ( <= ( + T1 63 )  ( + T5 19 ) ) ( <= ( + T5 60 )( + T1 15 ) ) )
(or ( <= ( + T1 163 )  ( + T5 60 ) ) ( <= ( + T5 100 )( + T1 63 ) ) )
(or ( <= ( + T1 183 )  ( + T5 100 ) ) ( <= ( + T5 189 )( + T1 163 ) ) )
(or ( <= ( + T1 15 ) T6 ) ( <= ( + T6 66 ) T1 ) )
(or ( <= ( + T1 63 )  ( + T6 66 ) ) ( <= ( + T6 135 )( + T1 15 ) ) )
(or ( <= ( + T1 163 )  ( + T6 135 ) ) ( <= ( + T6 213 )( + T1 63 ) ) )
(or ( <= ( + T1 183 )  ( + T6 213 ) ) ( <= ( + T6 297 )( + T1 163 ) ) )
(or ( <= ( + T2 13 ) T3 ) ( <= ( + T3 80 ) T2 ) )
(or ( <= ( + T2 76 )  ( + T3 80 ) ) ( <= ( + T3 173 )( + T2 13 ) ) )
(or ( <= ( + T2 84 )  ( + T3 173 ) ) ( <= ( + T3 250 )( + T2 76 ) ) )
(or ( <= ( + T2 181 )  ( + T3 250 ) ) ( <= ( + T3 280 )( + T2 84 ) ) )
(or ( <= ( + T2 13 ) T4 ) ( <= ( + T4 54 ) T2 ) )
(or ( <= ( + T2 76 )  ( + T4 54 ) ) ( <= ( + T4 124 )( + T2 13 ) ) )
(or ( <= ( + T2 84 )  ( + T4 124 ) ) ( <= ( + T4 134 )( + T2 76 ) ) )
(or ( <= ( + T2 181 )  ( + T4 134 ) ) ( <= ( + T4 211 )( + T2 84 ) ) )
(or ( <= ( + T2 13 ) T5 ) ( <= ( + T5 19 ) T2 ) )
(or ( <= ( + T2 76 )  ( + T5 19 ) ) ( <= ( + T5 60 )( + T2 13 ) ) )
(or ( <= ( + T2 84 )  ( + T5 60 ) ) ( <= ( + T5 100 )( + T2 76 ) ) )
(or ( <= ( + T2 181 )  ( + T5 100 ) ) ( <= ( + T5 189 )( + T2 84 ) ) )
(or ( <= ( + T2 13 ) T6 ) ( <= ( + T6 66 ) T2 ) )
(or ( <= ( + T2 76 )  ( + T6 66 ) ) ( <= ( + T6 135 )( + T2 13 ) ) )
(or ( <= ( + T2 84 )  ( + T6 135 ) ) ( <= ( + T6 213 )( + T2 76 ) ) )
(or ( <= ( + T2 181 )  ( + T6 213 ) ) ( <= ( + T6 297 )( + T2 84 ) ) )
(or ( <= ( + T3 80 ) T4 ) ( <= ( + T4 54 ) T3 ) )
(or ( <= ( + T3 173 )  ( + T4 54 ) ) ( <= ( + T4 124 )( + T3 80 ) ) )
(or ( <= ( + T3 250 )  ( + T4 124 ) ) ( <= ( + T4 134 )( + T3 173 ) ) )
(or ( <= ( + T3 280 )  ( + T4 134 ) ) ( <= ( + T4 211 )( + T3 250 ) ) )
(or ( <= ( + T3 80 ) T5 ) ( <= ( + T5 19 ) T3 ) )
(or ( <= ( + T3 173 )  ( + T5 19 ) ) ( <= ( + T5 60 )( + T3 80 ) ) )
(or ( <= ( + T3 250 )  ( + T5 60 ) ) ( <= ( + T5 100 )( + T3 173 ) ) )
(or ( <= ( + T3 280 )  ( + T5 100 ) ) ( <= ( + T5 189 )( + T3 250 ) ) )
(or ( <= ( + T3 80 ) T6 ) ( <= ( + T6 66 ) T3 ) )
(or ( <= ( + T3 173 )  ( + T6 66 ) ) ( <= ( + T6 135 )( + T3 80 ) ) )
(or ( <= ( + T3 250 )  ( + T6 135 ) ) ( <= ( + T6 213 )( + T3 173 ) ) )
(or ( <= ( + T3 280 )  ( + T6 213 ) ) ( <= ( + T6 297 )( + T3 250 ) ) )
(or ( <= ( + T4 54 ) T5 ) ( <= ( + T5 19 ) T4 ) )
(or ( <= ( + T4 124 )  ( + T5 19 ) ) ( <= ( + T5 60 )( + T4 54 ) ) )
(or ( <= ( + T4 134 )  ( + T5 60 ) ) ( <= ( + T5 100 )( + T4 124 ) ) )
(or ( <= ( + T4 211 )  ( + T5 100 ) ) ( <= ( + T5 189 )( + T4 134 ) ) )
(or ( <= ( + T4 54 ) T6 ) ( <= ( + T6 66 ) T4 ) )
(or ( <= ( + T4 124 )  ( + T6 66 ) ) ( <= ( + T6 135 )( + T4 54 ) ) )
(or ( <= ( + T4 134 )  ( + T6 135 ) ) ( <= ( + T6 213 )( + T4 124 ) ) )
(or ( <= ( + T4 211 )  ( + T6 213 ) ) ( <= ( + T6 297 )( + T4 134 ) ) )
(or ( <= ( + T5 19 ) T6 ) ( <= ( + T6 66 ) T5 ) )
(or ( <= ( + T5 60 )  ( + T6 66 ) ) ( <= ( + T6 135 )( + T5 19 ) ) )
(or ( <= ( + T5 100 )  ( + T6 135 ) ) ( <= ( + T6 213 )( + T5 60 ) ) )
(or ( <= ( + T5 189 )  ( + T6 213 ) ) ( <= ( + T6 297 )( + T5 100 ) ) )
( <= ( + T1 183 ) Z)
( <= ( + T2 181 ) Z)
( <= ( + T3 280 ) Z)
( <= ( + T4 211 ) Z)
( <= ( + T5 189 ) Z)
( <= ( + T6 297 ) Z)
( >= T1 0 )
( >= T2 0 )
( >= T3 0 )
( >= T4 0 )
( >= T5 0 )
( >= T6 0 )
) )
(minimize Z)
(check-sat)